============================[ Problem Statistics ]=============================|                                                                             ||  Number of variables:          4242                                         ||  Number of clauses:            9804                                         ||  Parse time:                   0.21 s                                       ||                                                                             |============================[ Search Statistics ]==============================| Conflicts |          ORIGINAL         |          LEARNT          | Progress ||           |    Vars  Clauses Literals |    Limit  Clauses Lit/Cl |          |===============================================================================|       100 |    1591     6009   307720 |     2203      100     53 | 62.501 % |===============================================================================restarts              : 2conflicts             : 121            (347 /sec)decisions             : 292            (0.00 % random) (837 /sec)propagations          : 9895           (28352 /sec)conflict literals     : 7131           (95.69 % deleted)CPU time              : 0.349 sSATISFIABLE